26
2 3 21 
3 38 1 7 
2 31 8 
2 59 11 
2 49 29 
2 4 26 
2 13 53 
2 42 6 
2 36 54 
3 18 50 47 
3 55 22 30 
2 14 48 
3 43 19 16 
2 34 46 
3 24 41 23 
3 58 28 27 
2 60 57 
3 20 32 45 
2 12 33 
2 44 56 
3 39 25 52 
2 9 35 
2 40 17 
3 5 10 2 
1 37 
2 15 51 
